(set-logic QF_S)
(declare-fun var0 () String)
(assert (RegexIn var0 (RegexConcat (RegexUnion (RegexPlus (RegexPlus (RegexUnion (RegexStar (RegexPlus (RegexStar (RegexStar (RegexPlus (RegexUnion (RegexStar (RegexStar (RegexStar (RegexPlus (Str2Reg "000"))))) (RegexStar (RegexStar (RegexPlus (RegexPlus (Str2Reg "111"))))))))))) (RegexStar (RegexUnion (RegexPlus (RegexUnion (RegexStar (RegexUnion (RegexUnion (RegexPlus (RegexStar (RegexUnion (Str2Reg "22") (Str2Reg "33")))) (RegexPlus (RegexPlus (RegexStar (Str2Reg "444"))))) (RegexUnion (RegexUnion (RegexPlus (RegexStar (Str2Reg "555"))) (RegexPlus (RegexUnion (Str2Reg "6") (Str2Reg "7")))) (RegexUnion (RegexUnion (RegexPlus (Str2Reg "8")) (RegexPlus (Str2Reg "99"))) (RegexUnion (RegexStar (Str2Reg "aaa")) (RegexStar (Str2Reg "bb"))))))) (RegexStar (RegexUnion (RegexStar (RegexPlus (RegexPlus (RegexUnion (Str2Reg "ccc") (Str2Reg "ddd"))))) (RegexStar (RegexStar (RegexUnion (RegexStar (Str2Reg "eee")) (RegexStar (Str2Reg "f"))))))))) (RegexPlus (RegexUnion (RegexPlus (RegexUnion (RegexPlus (RegexStar (RegexPlus (RegexUnion (Str2Reg "ggg") (Str2Reg "h"))))) (RegexPlus (RegexUnion (RegexStar (RegexStar (Str2Reg "iii"))) (RegexStar (RegexUnion (Str2Reg "jj") (Str2Reg "kk"))))))) (RegexPlus (RegexUnion (RegexUnion (RegexUnion (RegexUnion (RegexPlus (Str2Reg "l")) (RegexPlus (Str2Reg "m"))) (RegexUnion (RegexUnion (Str2Reg "nnn") (Str2Reg "o")) (RegexUnion (Str2Reg "ppp") (Str2Reg "q")))) (RegexUnion (RegexStar (RegexStar (Str2Reg "rr"))) (RegexStar (RegexPlus (Str2Reg "sss"))))) (RegexUnion (RegexPlus (RegexPlus (RegexUnion (Str2Reg "t") (Str2Reg "uu")))) (RegexPlus (RegexUnion (RegexUnion (Str2Reg "vv") (Str2Reg "ww")) (RegexUnion (Str2Reg "xxx") (Str2Reg "y")))))))))))))) (RegexPlus (RegexUnion (RegexPlus (RegexPlus (RegexPlus (RegexStar (RegexUnion (RegexStar (RegexPlus (RegexUnion (RegexStar (RegexUnion (RegexPlus (Str2Reg "zzz")) (RegexPlus (Str2Reg "A")))) (RegexStar (RegexPlus (RegexUnion (Str2Reg "BBB") (Str2Reg "C"))))))) (RegexStar (RegexPlus (RegexStar (RegexUnion (RegexUnion (RegexUnion (Str2Reg "DDD") (Str2Reg "EEE")) (RegexUnion (Str2Reg "F") (Str2Reg "GGG"))) (RegexUnion (RegexStar (Str2Reg "HHH")) (RegexStar (Str2Reg "III")))))))))))) (RegexPlus (RegexPlus (RegexPlus (RegexUnion (RegexStar (RegexPlus (RegexStar (RegexStar (RegexUnion (RegexUnion (RegexUnion (Str2Reg "J") (Str2Reg "KKK")) (RegexUnion (Str2Reg "LLL") (Str2Reg "M"))) (RegexUnion (RegexStar (Str2Reg "NNN")) (RegexStar (Str2Reg "OO")))))))) (RegexStar (RegexPlus (RegexUnion (RegexUnion (RegexUnion (RegexPlus (RegexPlus (Str2Reg "PPP"))) (RegexPlus (RegexPlus (Str2Reg "QQ")))) (RegexUnion (RegexStar (RegexPlus (Str2Reg "RRR"))) (RegexStar (RegexUnion (Str2Reg "SS") (Str2Reg "T"))))) (RegexUnion (RegexPlus (RegexUnion (RegexUnion (Str2Reg "U") (Str2Reg "VVV")) (RegexUnion (Str2Reg "WWW") (Str2Reg "X")))) (RegexPlus (RegexPlus (RegexUnion (Str2Reg "YY") (Str2Reg "Z"))))))))))))))) (RegexStar (RegexUnion (RegexStar (RegexStar (RegexStar (RegexPlus (RegexUnion (RegexUnion (RegexUnion (RegexPlus (RegexPlus (RegexPlus (RegexPlus (RegexPlus (Str2Reg "!!")))))) (RegexPlus (RegexPlus (RegexUnion (RegexUnion (RegexStar (Str2Reg "\"\"")) (RegexStar (Str2Reg "###"))) (RegexUnion (RegexUnion (Str2Reg "$$") (Str2Reg "%%%")) (RegexUnion (Str2Reg "&&") (Str2Reg "'"))))))) (RegexUnion (RegexUnion (RegexUnion (RegexUnion (RegexStar (RegexPlus (Str2Reg "("))) (RegexStar (RegexStar (Str2Reg ")")))) (RegexUnion (RegexPlus (RegexStar (Str2Reg "**"))) (RegexPlus (RegexPlus (Str2Reg "++"))))) (RegexUnion (RegexUnion (RegexUnion (RegexUnion (Str2Reg ",") (Str2Reg "--")) (RegexUnion (Str2Reg "..") (Str2Reg "//"))) (RegexUnion (RegexStar (Str2Reg ":")) (RegexStar (Str2Reg ";")))) (RegexUnion (RegexPlus (RegexUnion (Str2Reg "<<<") (Str2Reg "=="))) (RegexPlus (RegexUnion (Str2Reg ">") (Str2Reg "??")))))) (RegexUnion (RegexUnion (RegexStar (RegexUnion (RegexStar (Str2Reg "@@@")) (RegexStar (Str2Reg "[[")))) (RegexStar (RegexUnion (RegexUnion (Str2Reg "\\\\\\") (Str2Reg "]]]")) (RegexUnion (Str2Reg "^") (Str2Reg "_"))))) (RegexUnion (RegexUnion (RegexStar (RegexUnion (Str2Reg "`") (Str2Reg "{{{"))) (RegexStar (RegexPlus (Str2Reg "||")))) (RegexUnion (RegexPlus (RegexUnion (Str2Reg "}}") (Str2Reg "~"))) (RegexPlus (RegexStar (Str2Reg "0")))))))) (RegexUnion (RegexPlus (RegexUnion (RegexUnion (RegexUnion (RegexPlus (RegexPlus (Str2Reg "1"))) (RegexPlus (RegexStar (Str2Reg "222")))) (RegexUnion (RegexPlus (RegexUnion (Str2Reg "333") (Str2Reg "4"))) (RegexPlus (RegexStar (Str2Reg "55"))))) (RegexUnion (RegexStar (RegexStar (RegexStar (Str2Reg "6")))) (RegexStar (RegexUnion (RegexUnion (Str2Reg "7") (Str2Reg "88")) (RegexUnion (Str2Reg "999") (Str2Reg "aa"))))))) (RegexPlus (RegexStar (RegexUnion (RegexPlus (RegexUnion (RegexPlus (Str2Reg "bb")) (RegexPlus (Str2Reg "ccc")))) (RegexPlus (RegexStar (RegexPlus (Str2Reg "d"))))))))))))) (RegexStar (RegexPlus (RegexUnion (RegexUnion (RegexStar (RegexUnion (RegexPlus (RegexPlus (RegexUnion (RegexStar (RegexPlus (RegexUnion (Str2Reg "ee") (Str2Reg "fff")))) (RegexStar (RegexPlus (RegexPlus (Str2Reg "ggg"))))))) (RegexPlus (RegexUnion (RegexPlus (RegexUnion (RegexUnion (RegexStar (Str2Reg "hhh")) (RegexStar (Str2Reg "ii"))) (RegexUnion (RegexPlus (Str2Reg "j")) (RegexPlus (Str2Reg "kkk"))))) (RegexPlus (RegexPlus (RegexPlus (RegexStar (Str2Reg "lll"))))))))) (RegexStar (RegexStar (RegexPlus (RegexUnion (RegexStar (RegexUnion (RegexStar (RegexUnion (Str2Reg "mmm") (Str2Reg "nnn"))) (RegexStar (RegexPlus (Str2Reg "o"))))) (RegexStar (RegexStar (RegexPlus (RegexStar (Str2Reg "pp")))))))))) (RegexUnion (RegexStar (RegexUnion (RegexPlus (RegexUnion (RegexStar (RegexUnion (RegexUnion (RegexPlus (Str2Reg "q")) (RegexPlus (Str2Reg "rrr"))) (RegexUnion (RegexStar (Str2Reg "s")) (RegexStar (Str2Reg "tt"))))) (RegexStar (RegexStar (RegexPlus (RegexUnion (Str2Reg "uu") (Str2Reg "vvv"))))))) (RegexPlus (RegexUnion (RegexUnion (RegexStar (RegexPlus (RegexUnion (Str2Reg "w") (Str2Reg "xxx")))) (RegexStar (RegexUnion (RegexPlus (Str2Reg "y")) (RegexPlus (Str2Reg "z"))))) (RegexUnion (RegexPlus (RegexUnion (RegexUnion (Str2Reg "AAA") (Str2Reg "B")) (RegexUnion (Str2Reg "C") (Str2Reg "DDD")))) (RegexPlus (RegexPlus (RegexUnion (Str2Reg "EE") (Str2Reg "FF"))))))))) (RegexStar (RegexStar (RegexPlus (RegexStar (RegexPlus (RegexStar (RegexStar (RegexStar (Str2Reg "G"))))))))))))))))))
(assert (<= 15 (Length var0)))
(check-sat)